<?xml version = "1.0" encoding="UTF-8" standalone="yes"?>
<CPLEXSolution version="1.2">
 <header
   problemName="inst_16_cut_n12"
   objectiveValue="200.78124999999997"
   solutionTypeValue="1"
   solutionTypeString="basic"
   solutionStatusValue="1"
   solutionStatusString="optimal"
   solutionMethodString="primal"
   primalFeasible="1"
   dualFeasible="1"
   simplexIterations="0"
   writeLevel="1"/>
 <quality
   epRHS="9.9999999999999995e-07"
   epOpt="9.9999999999999995e-07"
   maxPrimalInfeas="0"
   maxDualInfeas="0"
   maxPrimalResidual="4.2632564145606011e-14"
   maxDualResidual="5.8619775700208265e-14"
   maxX="1"
   maxPi="0.93234890109890123"
   maxSlack="713.4375"
   maxRedCost="61.090659340659258"
   kappa="18660.286641062634"/>
 <linearConstraints>
  <constraint name="c0" index="0" status="BS" slack="200.8125" dual="-0"/>
  <constraint name="c1" index="1" status="BS" slack="102.03125000000004" dual="-0"/>
  <constraint name="c2" index="2" status="LL" slack="0" dual="0.93234890109890123"/>
  <constraint name="c3" index="3" status="BS" slack="491.78125000000006" dual="-0"/>
  <constraint name="c4" index="4" status="BS" slack="567.46875" dual="-0"/>
  <constraint name="c5" index="5" status="BS" slack="558.875" dual="-0"/>
  <constraint name="c6" index="6" status="BS" slack="197.75" dual="-0"/>
  <constraint name="c7" index="7" status="BS" slack="713.4375" dual="-0"/>
  <constraint name="c8" index="8" status="BS" slack="458.96875" dual="-0"/>
  <constraint name="c9" index="9" status="BS" slack="520" dual="-0"/>
  <constraint name="c10" index="10" status="BS" slack="485.84375" dual="-0"/>
  <constraint name="c11" index="11" status="BS" slack="298.3125" dual="-0"/>
  <constraint name="c12" index="12" status="BS" slack="135.75000000000003" dual="-0"/>
  <constraint name="c13" index="13" status="LL" slack="0" dual="-0"/>
  <constraint name="c14" index="14" status="BS" slack="492.5" dual="-0"/>
  <constraint name="cut_1" index="15" status="BS" slack="0.81250000000001421" dual="-0"/>
  <constraint name="cut_2" index="16" status="BS" slack="0.96875" dual="-0"/>
  <constraint name="cut_3" index="17" status="LL" slack="0" dual="0.043612637362635986"/>
  <constraint name="cut_4" index="18" status="BS" slack="0.21874999999994316" dual="-0"/>
  <constraint name="cut_5" index="19" status="BS" slack="2.5312499999999751" dual="-0"/>
  <constraint name="cut_6" index="20" status="BS" slack="1.3125000000000568" dual="-0"/>
  <constraint name="cut_7" index="21" status="BS" slack="1.0625000000000142" dual="-0"/>
  <constraint name="cut_8" index="22" status="BS" slack="0.5625000000000604" dual="-0"/>
  <constraint name="cut_9" index="23" status="BS" slack="1.2187499999999725" dual="-0"/>
  <constraint name="cut_10" index="24" status="BS" slack="0.18750000000006395" dual="-0"/>
  <constraint name="cut_11" index="25" status="BS" slack="1.15625" dual="-0"/>
  <constraint name="cut_12" index="26" status="BS" slack="1.3125000000000169" dual="-0"/>
 </linearConstraints>
 <variables>
  <variable name="x0" index="0" status="LL" value="0" reducedCost="-21.269230769230727"/>
  <variable name="x1" index="1" status="BS" value="0.71875000000000022" reducedCost="0"/>
  <variable name="x2" index="2" status="LL" value="0" reducedCost="-38.263049450549424"/>
  <variable name="x3" index="3" status="UL" value="1" reducedCost="13.973557692307818"/>
  <variable name="x4" index="4" status="UL" value="1" reducedCost="15.196428571428591"/>
  <variable name="x5" index="5" status="BS" value="0.81249999999999956" reducedCost="0"/>
  <variable name="x6" index="6" status="LL" value="0" reducedCost="-61.090659340659258"/>
  <variable name="x7" index="7" status="LL" value="0" reducedCost="-29.815590659340565"/>
  <variable name="x8" index="8" status="LL" value="0" reducedCost="-45.734203296703242"/>
  <variable name="s0" index="9" status="LL" value="0" reducedCost="0"/>
  <variable name="s1" index="10" status="LL" value="0" reducedCost="0"/>
  <variable name="s2" index="11" status="LL" value="0" reducedCost="-0.93234890109890123"/>
  <variable name="s3" index="12" status="LL" value="0" reducedCost="0"/>
  <variable name="s4" index="13" status="LL" value="0" reducedCost="0"/>
  <variable name="s5" index="14" status="LL" value="0" reducedCost="0"/>
  <variable name="s6" index="15" status="LL" value="0" reducedCost="0"/>
  <variable name="s7" index="16" status="LL" value="0" reducedCost="0"/>
  <variable name="s8" index="17" status="LL" value="0" reducedCost="0"/>
  <variable name="s9" index="18" status="LL" value="0" reducedCost="0"/>
  <variable name="s10" index="19" status="LL" value="0" reducedCost="0"/>
  <variable name="s11" index="20" status="LL" value="0" reducedCost="0"/>
  <variable name="s12" index="21" status="LL" value="0" reducedCost="0"/>
  <variable name="s13" index="22" status="BS" value="0.81249999999999645" reducedCost="0"/>
  <variable name="s14" index="23" status="LL" value="0" reducedCost="0"/>
 </variables>
 <objectiveValues>
  <objective index="0" name="" value="200.78124999999997"/>
 </objectiveValues>
</CPLEXSolution>
